c Random generated cnf formula, satisfiable: false
p cnf 10 50
-9 -8 2 0
8 2 -10 0
6 -7 -2 0
5 -9 -7 0
2 -8 10 0
-3 -7 4 0
9 -4 -10 0
8 -7 9 0
10 1 6 0
-1 -3 -6 0
-8 -9 -4 0
10 -4 3 0
6 4 3 0
9 6 -5 0
-5 -9 2 0
4 -9 5 0
10 1 9 0
-5 -4 1 0
-8 9 7 0
1 -5 -3 0
10 7 9 0
-4 -7 -8 0
-3 -2 4 0
2 4 -10 0
-7 8 -2 0
-10 -3 6 0
5 8 1 0
2 8 -5 0
10 9 3 0
-5 -9 6 0
-10 -6 5 0
-3 2 10 0
5 8 10 0
1 3 -2 0
-4 -6 8 0
6 3 -2 0
-2 7 5 0
-4 2 -3 0
8 -7 4 0
5 -10 1 0
10 -9 1 0
-1 4 9 0
-2 4 -9 0
10 6 7 0
2 7 -1 0
-7 3 -4 0
2 6 7 0
-5 -3 -6 0
-9 5 3 0
-7 2 6 0
